25 500
  0     40.0     50.0       0.0      960.0      0.0       0.0       0.0  
  1     25.0     85.0      388.0     911.0     10.0       9.0      20.0  
  2     22.0     75.0      30.0      546.0     10.0      10.0      30.0  
  3     22.0     85.0      353.0     708.0     10.0       8.0      10.0  
  4     20.0     80.0      425.0     913.0     10.0      10.0      40.0  
  5     20.0     85.0      40.0      630.0     10.0       4.0      20.0  
  6     18.0     75.0      228.0     667.0     10.0       1.0      20.0  
  7     15.0     75.0      161.0     558.0     10.0      14.0      20.0  
  8     15.0     80.0      229.0     624.0     10.0      10.0      10.0  
  9     10.0     35.0      213.0     648.0     10.0      15.0      20.0  
 10     10.0     40.0      404.0     753.0     10.0      26.0      30.0  
 11      8.0     40.0      33.0      511.0     10.0      20.0      40.0  
 12      8.0     45.0      46.0      519.0     10.0       2.0      20.0  
 13      5.0     35.0      395.0     911.0     10.0       3.0      10.0  
 14      5.0     45.0      35.0      697.0     10.0       6.0      10.0  
 15      2.0     40.0      39.0      528.0     10.0       2.0      20.0  
 16      0.0     40.0      94.0      535.0     10.0      19.0      20.0  
 17      0.0     45.0      394.0     909.0     10.0      11.0      20.0  
 18     44.0      5.0      218.0     571.0     10.0      20.0      20.0  
 19     42.0     10.0      85.0      542.0     10.0      26.0      40.0  
 20     42.0     15.0      391.0     802.0     10.0       8.0      10.0  
 21     40.0      5.0      45.0      517.0     10.0       5.0      10.0  
 22     40.0     15.0      229.0     640.0     10.0       9.0      40.0  
 23     38.0      5.0      45.0      523.0     10.0      16.0      30.0  
 24     38.0     15.0      389.0     914.0     10.0       7.0      10.0  
 25     35.0      5.0      386.0     904.0     10.0       9.0      20.0  
